Route #1: 82 107 7 37 94 81 44 70
Route #2: 29 78 106 42 97 92 20 74
Route #3: 76 83 22 61 60 104 64 36 59
Route #4: 51 85 87 26 15 53 66 98 11
Route #5: 63 72 21 75 88 96 17 95
Route #6: 16 23 13 57 35 73 86 10
Route #7: 25 103 24 4 101 9 33 102 55 56
Route #8: 39 28 31 27 65 99 43 93
Route #9: 8 62 100 40 47 48 90 1
Route #10: 38 79 32 105 89 67 34 45 46
Route #11: 91 108 6 5 77 84 18 109
Route #12: 49 19 58 12 41 54 68 50 52
Route #13: 69 30 2 80 71 3 14
Cost 15867.371511186278